p wcnf 101 123 124 
1 61 -84 0 
1 -9 51 0 
1 -32 43 0 
1 35 52 0 
1 27 -75 0 
1 -52 -50 0 
1 -99 -24 0 
1 -63 -33 0 
1 -32 -90 0 
1 -22 -47 0 
1 77 -81 0 
1 56 -72 0 
1 24 -23 0 
1 21 88 0 
1 -29 18 0 
1 -84 -94 0 
1 -50 -28 0 
1 -4 -34 0 
1 -81 -82 0 
1 -79 13 0 
1 -44 5 0 
1 57 -56 0 
1 -88 58 0 
1 -67 -74 0 
1 -50 -90 0 
1 15 71 0 
1 -47 51 0 
1 51 -37 0 
1 84 91 0 
1 73 55 0 
1 -73 -3 0 
1 84 60 0 
1 -26 15 0 
1 -99 8 0 
1 -12 70 0 
1 -50 31 0 
1 66 -37 0 
1 53 72 0 
1 49 6 0 
1 -7 -75 0 
1 -50 23 0 
1 28 -40 0 
1 -27 69 0 
1 -16 71 0 
1 -84 40 0 
1 9 98 0 
1 -60 23 0 
1 -75 -92 0 
1 -49 -77 0 
1 -16 -25 0 
1 75 -44 0 
1 31 2 0 
1 -94 -26 0 
1 71 -99 0 
1 -21 -70 0 
1 17 -86 0 
1 -84 -60 0 
1 100 70 0 
1 70 -54 0 
1 -69 -80 0 
1 -54 41 0 
1 70 41 0 
1 79 77 0 
1 -54 -42 0 
1 76 -93 0 
1 -23 59 0 
1 -50 -6 0 
1 66 30 0 
1 -82 19 0 
1 45 35 0 
1 79 39 0 
1 16 -13 0 
1 1 -84 0 
1 -59 33 0 
1 -95 -55 0 
1 13 73 0 
1 24 60 0 
1 32 -56 0 
1 -89 27 0 
1 85 -21 0 
1 51 -50 0 
1 90 58 0 
1 38 41 0 
1 -75 -25 0 
1 -29 -34 0 
1 69 71 0 
1 37 -95 0 
1 21 -42 0 
1 -54 5 0 
1 8 -84 0 
1 -65 4 0 
1 -60 81 0 
1 20 84 0 
1 71 -48 0 
1 -3 -90 0 
1 9 -75 0 
1 -86 -15 0 
1 -90 -25 0 
1 97 -20 0 
1 -51 -37 0 
1 45 6 0 
1 14 87 0 
1 100 42 0 
1 39 -60 0 
1 -84 40 0 
1 -78 86 0 
1 -61 -28 0 
1 60 33 0 
1 -13 32 0 
1 15 -94 0 
1 59 43 0 
1 -101 63 0 
1 92 98 0 
1 -79 11 0 
1 -69 52 0 
1 -41 -84 0 
1 -51 28 0 
1 -5 63 0 
1 -64 5 0 
1 13 -76 0 
1 -20 83 0 
1 -78 -64 0 
1 -49 -40 0 
